results/gr_files/L.gr
p tw 31 45
3 4
26 27
12 13
21 22
22 23
8 9
5 16
17 18
27 28
25 26
13 14
10 21
18 19
15 26
4 5
5 6
3 18
4 17
14 15
23 24
9 10
11 30
1 2
10 11
14 27
8 23
9 22
19 20
28 29
1 20
2 19
6 7
15 16
24 25
13 28
6 25
7 24
20 21
29 30
12 29
2 3
11 12
7 8
30 31
16 17
